(set-logic BV)
(declare-fun _substvar_5731_ () Bool)
(declare-fun _substvar_5732_ () Bool)
(declare-fun R_E1_V4 () Bool)
(declare-fun W_S1_V4 () Bool)
(declare-fun R_E1_V5 () Bool)
(declare-fun W_S1_V5 () Bool)
(declare-fun W_S2_V5 () Bool)
(declare-fun W_S2_V2 () Bool)
(declare-fun W_S2_V3 () Bool)
(declare-fun W_S2_V1 () Bool)
(declare-fun R_S2_V4 () Bool)
(declare-fun R_S2_V5 () Bool)
(declare-fun R_S2_V2 () Bool)
(declare-fun R_S2_V3 () Bool)
(declare-fun R_S2_V1 () Bool)
(declare-fun R_S1_V4 () Bool)
(declare-fun R_S1_V5 () Bool)
(declare-fun R_S1_V2 () Bool)
(declare-fun R_S1_V3 () Bool)
(declare-fun R_S1_V1 () Bool)
(declare-fun R_E1_V2 () Bool)
(declare-fun DISJ_W_S2_R_E1 () Bool)
(declare-fun DISJ_W_S2_R_S2 () Bool)
(declare-fun DISJ_W_S2_R_S1 () Bool)
(declare-fun DISJ_W_S1_W_S2 () Bool)
(declare-fun R_E1_V3 () Bool)
(declare-fun DISJ_W_S1_R_S2 () Bool)
(declare-fun DISJ_W_S1_R_S1 () Bool)
(declare-fun W_S2_V4 () Bool)
(declare-fun W_S1_V3 () Bool)
(declare-fun W_S1_V2 () Bool)
(declare-fun W_S1_V1 () Bool)
(declare-fun R_E1_V1 () Bool)
(declare-fun DISJ_W_S1_R_E1 () Bool)
(assert (let (($x115 (= DISJ_W_S2_R_S2 (not (or (and W_S2_V1 R_S2_V1) (and W_S2_V3 R_S2_V3) (and W_S2_V2 R_S2_V2) (and W_S2_V5 R_S2_V5) R_S2_V4))))) (let (($x112 (= DISJ_W_S2_R_S1 (not (or (and W_S2_V1 R_S1_V1) (and W_S2_V3 R_S1_V3) (and W_S2_V2 R_S1_V2) (and W_S2_V5 R_S1_V5) R_S1_V4))))) (let (($x3189 (= DISJ_W_S1_W_S2 (not (or W_S2_V3 (and W_S1_V5 W_S2_V5) W_S1_V4))))) (let (($x2259 (not W_S2_V2))) (and DISJ_W_S1_R_E1 R_E1_V1 W_S1_V1 W_S1_V2 (or (and (not W_S2_V2) DISJ_W_S2_R_S1 DISJ_W_S1_R_S1) (and (not W_S2_V1) $x2259) (and (not R_S1_V1) DISJ_W_S1_R_S1)) W_S1_V3 W_S2_V4 (= DISJ_W_S1_R_S1 (not (or R_S1_V3 (and W_S1_V5 R_S1_V5) (and W_S1_V4 R_S1_V4)))) (= DISJ_W_S1_R_S2 (not (or R_S2_V3 (and W_S1_V5 R_S2_V5) (and W_S1_V4 R_S2_V4)))) R_E1_V3 (= DISJ_W_S1_W_S2 (not (or W_S2_V3 (and W_S1_V5 W_S2_V5) W_S1_V4))) (= DISJ_W_S2_R_S1 (not (or (and W_S2_V1 R_S1_V1) (and W_S2_V3 R_S1_V3) (and W_S2_V2 R_S1_V2) (and W_S2_V5 R_S1_V5) R_S1_V4))) (= DISJ_W_S2_R_S2 (not (or (and W_S2_V1 R_S2_V1) (and W_S2_V3 R_S2_V3) (and W_S2_V2 R_S2_V2) (and W_S2_V5 R_S2_V5) R_S2_V4))) (= DISJ_W_S2_R_E1 (or (and W_S2_V2 R_E1_V2) (and W_S2_V5 R_E1_V5) R_E1_V4)) (forall ((V3_0 (_ BitVec 32)) (V2_0 (_ BitVec 32)) (V5_0 (_ BitVec 32)) (V4_0 (_ BitVec 32)) (MW_S1_V1 Bool) (MW_S1_V3 Bool) (MW_S1_V2 Bool) (MW_S1_V5 Bool) (MW_S1_V4 Bool) (MW_S2_V1 Bool) (MW_S2_V3 Bool) (MW_S2_V2 Bool) (MW_S2_V5 Bool) (MW_S2_V4 Bool) (S1_V1_!2447 (_ BitVec 32)) (S1_V1_!2457 (_ BitVec 32)) (S1_V1_!2468 (_ BitVec 32)) (S2_V5_!2455 (_ BitVec 32)) (S2_V5_!2465 (_ BitVec 32)) (S2_V5_!2477 (_ BitVec 32)) (S2_V5_!2482 (_ BitVec 32)) (S1_V3_!2448 (_ BitVec 32)) (S1_V3_!2458 (_ BitVec 32)) (S1_V3_!2469 (_ BitVec 32)) (S1_V2_!2449 (_ BitVec 32)) (S1_V2_!2459 (_ BitVec 32)) (S1_V2_!2470 (_ BitVec 32)) (E1_!2446 (_ BitVec 32)) (E1_!2467 (_ BitVec 32)) (E1_!2473 (_ BitVec 32)) (S2_V4_!2456 (_ BitVec 32)) (S2_V4_!2466 (_ BitVec 32)) (S2_V4_!2478 (_ BitVec 32)) (S2_V4_!2483 (_ BitVec 32)) (S1_V5_!2450 (_ BitVec 32)) (S1_V5_!2460 (_ BitVec 32)) (S1_V5_!2471 (_ BitVec 32)) (S2_V1_!2452 (_ BitVec 32)) (S2_V1_!2462 (_ BitVec 32)) (S2_V1_!2474 (_ BitVec 32)) (S2_V1_!2479 (_ BitVec 32)) (S1_V4_!2451 (_ BitVec 32)) (S1_V4_!2461 (_ BitVec 32)) (S1_V4_!2472 (_ BitVec 32)) (S2_V2_!2454 (_ BitVec 32)) (S2_V2_!2464 (_ BitVec 32)) (S2_V2_!2476 (_ BitVec 32)) (S2_V2_!2481 (_ BitVec 32)) (S2_V3_!2453 (_ BitVec 32)) (S2_V3_!2463 (_ BitVec 32)) (S2_V3_!2475 (_ BitVec 32)) (S2_V3_!2480 (_ BitVec 32))) (let (($x2590 (= (ite MW_S2_V4 S2_V4_!2466 (ite MW_S1_V4 S1_V4_!2461 (ite MW_S2_V4 S2_V4_!2456 (ite MW_S1_V4 S1_V4_!2451 V4_0)))) (ite MW_S2_V4 S2_V4_!2483 (ite MW_S1_V4 S1_V4_!2472 V4_0))))) (let ((?x2455 (ite MW_S1_V2 S1_V2_!2470 V2_0))) (let ((?x3414 (ite MW_S1_V2 S1_V2_!2459 (ite MW_S2_V2 S2_V2_!2454 (ite MW_S1_V2 S1_V2_!2449 V2_0))))) (let ((?x2975 (ite MW_S2_V1 S2_V1_!2474 E1_!2473))) (let ((?x3074 (bvadd (_ bv1 32) ?x2975))) (let ((?x3185 (ite MW_S1_V1 S1_V1_!2457 (bvadd (_ bv1 32) (ite MW_S2_V1 S2_V1_!2452 (ite MW_S1_V1 S1_V1_!2447 E1_!2446)))))) (let (($x2492 (and (not (bvsle V2_0 E1_!2446)) (not (bvsle (ite MW_S2_V2 S2_V2_!2454 (ite MW_S1_V2 S1_V2_!2449 V2_0)) (bvadd (_ bv1 32) (ite MW_S2_V1 S2_V1_!2452 (ite MW_S1_V1 S1_V1_!2447 E1_!2446))))) (bvsge (ite MW_S2_V1 S2_V1_!2462 ?x3185) (bvadd (bvneg (_ bv1 32)) (ite MW_S2_V2 S2_V2_!2464 ?x3414))) (not (bvsle V2_0 E1_!2467)) (bvsge (ite MW_S1_V1 S1_V1_!2468 E1_!2467) (bvadd (bvneg (_ bv1 32)) ?x2455)) (not (bvsle ?x2455 E1_!2473)) (not (bvsle (ite MW_S2_V2 S2_V2_!2476 ?x2455) ?x3074)) (bvsge (ite MW_S2_V1 S2_V1_!2479 ?x3074) (bvadd (bvneg (_ bv1 32)) (ite MW_S2_V2 S2_V2_!2481 ?x2455)))))) (let (($x2550 (or (not MW_S2_V5) W_S2_V5))) (let (($x3459 (or (not MW_S2_V2) W_S2_V2))) (let (($x3240 (or (not MW_S2_V3) W_S2_V3))) (let (($x2661 (or (not MW_S2_V1) W_S2_V1))) (let (($x2811 (or (not MW_S1_V4) W_S1_V4))) (let (($x3256 (or (not MW_S1_V5) W_S1_V5))) (let (($x2987 (not (and (or (not R_S2_V1) (= E1_!2473 ?x3074)) (or (not R_S2_V3) (= (ite MW_S1_V3 S1_V3_!2469 V3_0) (ite MW_S2_V3 S2_V3_!2475 (ite MW_S1_V3 S1_V3_!2469 V3_0)))) (= (ite MW_S1_V4 S1_V4_!2472 V4_0) (ite MW_S2_V4 S2_V4_!2478 (ite MW_S1_V4 S1_V4_!2472 V4_0))))))) (let ((?x2923 (ite MW_S2_V4 S2_V4_!2456 (ite MW_S1_V4 S1_V4_!2451 V4_0)))) (let ((?x3637 (ite MW_S1_V4 S1_V4_!2472 V4_0))) (let (($x2702 (or (not R_S2_V4) (= ?x3637 (ite MW_S1_V4 S1_V4_!2461 ?x2923))))) (let ((?x3545 (ite MW_S1_V5 S1_V5_!2460 (ite MW_S2_V5 S2_V5_!2455 (ite MW_S1_V5 S1_V5_!2450 V5_0))))) (let ((?x3303 (ite MW_S1_V5 S1_V5_!2471 V5_0))) (let (($x3551 (or (not R_S2_V5) (= ?x3303 ?x3545)))) (let (($x3307 (or (not R_S2_V2) (= ?x2455 ?x3414)))) (let ((?x3272 (ite MW_S1_V3 S1_V3_!2458 (ite MW_S2_V3 S2_V3_!2453 (ite MW_S1_V3 S1_V3_!2448 V3_0))))) (let ((?x2679 (ite MW_S1_V3 S1_V3_!2469 V3_0))) (let (($x3399 (or (not R_S2_V3) (= ?x2679 ?x3272)))) (let (($x215 (not R_S2_V1))) (let (($x3421 (or $x215 (= E1_!2473 ?x3185)))) (let (($x2711 (or (not R_S2_V4) (= ?x3637 (ite MW_S1_V4 S1_V4_!2451 V4_0))))) (let (($x2742 (not (and (or $x215 (= E1_!2473 (ite MW_S1_V1 S1_V1_!2447 E1_!2446))) (or (not R_S2_V3) (= ?x2679 (ite MW_S1_V3 S1_V3_!2448 V3_0))) (or (not R_S2_V2) (= ?x2455 (ite MW_S1_V2 S1_V2_!2449 V2_0))) (or (not R_S2_V5) (= ?x3303 (ite MW_S1_V5 S1_V5_!2450 V5_0))) (or (not R_S2_V4) (= ?x3637 (ite MW_S1_V4 S1_V4_!2451 V4_0))))))) (let (($x3081 (not (and (or $x215 (= ?x3185 ?x3074)) (or (not R_S2_V3) (= ?x3272 (ite MW_S2_V3 S2_V3_!2475 ?x2679))) (or (not R_S2_V4) (= (ite MW_S1_V4 S1_V4_!2461 ?x2923) (ite MW_S2_V4 S2_V4_!2478 ?x3637))))))) (let (($x3562 (not (and (or $x215 (= ?x3185 (ite MW_S1_V1 S1_V1_!2447 E1_!2446))) (or (not R_S2_V3) (= ?x3272 (ite MW_S1_V3 S1_V3_!2448 V3_0))) (or (not R_S2_V2) (= ?x3414 (ite MW_S1_V2 S1_V2_!2449 V2_0))) (or (not R_S2_V5) (= ?x3545 (ite MW_S1_V5 S1_V5_!2450 V5_0))) (or (not R_S2_V4) (= (ite MW_S1_V4 S1_V4_!2461 ?x2923) (ite MW_S1_V4 S1_V4_!2451 V4_0))))))) (let (($x3291 (not (and (or $x215 (= (ite MW_S1_V1 S1_V1_!2447 E1_!2446) ?x3074)) (= (ite MW_S1_V4 S1_V4_!2451 V4_0) (ite MW_S2_V4 S2_V4_!2478 ?x3637)))))) (let (($x3743 (or (not R_S2_V4) (= (ite MW_S2_V4 S2_V4_!2478 ?x3637) ?x3637)))) (let (($x3978 (or (not R_S2_V2) (= (ite MW_S2_V2 S2_V2_!2476 ?x2455) ?x2455)))) (let (($x3434 (or (not R_S2_V3) (= (ite MW_S2_V3 S2_V3_!2475 ?x2679) ?x2679)))) (let (($x4079 (or (and (or $x215 (= ?x2975 (bvadd (_ bv1 32) E1_!2473))) $x3434 $x3978 (or (not R_S2_V5) (= (ite MW_S2_V5 S2_V5_!2477 ?x3303) ?x3303)) (or (not R_S2_V4) (= (ite MW_S2_V4 S2_V4_!2478 ?x3637) ?x3637))) (= S2_V2_!2481 S2_V2_!2476)))) (let (($x4012 (= S2_V2_!2481 S2_V2_!2464))) (let (($x3946 (or (not R_S2_V4) (= (ite MW_S2_V4 S2_V4_!2478 ?x3637) (ite MW_S1_V4 S1_V4_!2461 ?x2923))))) (let (($x3990 (or (not R_S2_V5) (= (ite MW_S2_V5 S2_V5_!2477 ?x3303) ?x3545)))) (let (($x3224 (or (not R_S2_V2) (= (ite MW_S2_V2 S2_V2_!2476 ?x2455) ?x3414)))) (let (($x3162 (or (and (or $x215 (= ?x2975 (bvadd (_ bv1 32) ?x3185))) (or (not R_S2_V3) (= (ite MW_S2_V3 S2_V3_!2475 ?x2679) ?x3272)) (or (not R_S2_V2) (= (ite MW_S2_V2 S2_V2_!2476 ?x2455) ?x3414)) $x3990 $x3946) (= S2_V2_!2481 S2_V2_!2464)))) (let (($x3555 (not (and (or $x215 (= ?x3185 E1_!2473)) (or (not R_S2_V3) (= ?x3272 ?x2679)) (or (not R_S2_V2) (= ?x3414 ?x2455)) (or (not R_S2_V5) (= ?x3545 ?x3303)) (or (not R_S2_V4) (= (ite MW_S1_V4 S1_V4_!2461 ?x2923) ?x3637)))))) (let (($x4110 (or (not R_S2_V4) (= (ite MW_S1_V4 S1_V4_!2451 V4_0) ?x3637)))) (let (($x2944 (or (not R_S2_V5) (= (ite MW_S1_V5 S1_V5_!2450 V5_0) ?x3303)))) (let (($x3431 (or (not R_S2_V2) (= (ite MW_S1_V2 S1_V2_!2449 V2_0) ?x2455)))) (let (($x4243 (or (not R_S2_V3) (= (ite MW_S1_V3 S1_V3_!2448 V3_0) ?x2679)))) (let (($x3861 (or $x215 (= (ite MW_S1_V1 S1_V1_!2447 E1_!2446) E1_!2473)))) (let (($x3997 (or (not R_S2_V4) (= (ite MW_S1_V4 S1_V4_!2451 V4_0) (ite MW_S1_V4 S1_V4_!2461 ?x2923))))) (let (($x3179 (or (not R_S2_V5) (= (ite MW_S1_V5 S1_V5_!2450 V5_0) ?x3545)))) (let (($x3662 (or (not R_S2_V2) (= (ite MW_S1_V2 S1_V2_!2449 V2_0) ?x3414)))) (let (($x4030 (or (not R_S2_V3) (= (ite MW_S1_V3 S1_V3_!2448 V3_0) ?x3272)))) (let (($x2481 (or $x215 (= (ite MW_S1_V1 S1_V1_!2447 E1_!2446) ?x3185)))) (let (($x3767 (or (not R_S1_V4) (= V4_0 ?x2923)))) (let (($x3690 (or (not R_S1_V5) (= V5_0 (ite MW_S2_V5 S2_V5_!2455 (ite MW_S1_V5 S1_V5_!2450 V5_0)))))) (let (($x3803 (not (and (or (not R_S1_V1) (= E1_!2467 (bvadd (_ bv1 32) (ite MW_S2_V1 S2_V1_!2452 (ite MW_S1_V1 S1_V1_!2447 E1_!2446))))) (or (not R_S1_V3) (= V3_0 (ite MW_S2_V3 S2_V3_!2453 (ite MW_S1_V3 S1_V3_!2448 V3_0)))) (or (not R_S1_V2) (= V2_0 (ite MW_S2_V2 S2_V2_!2454 (ite MW_S1_V2 S1_V2_!2449 V2_0)))) (or (not R_S1_V5) (= V5_0 (ite MW_S2_V5 S2_V5_!2455 (ite MW_S1_V5 S1_V5_!2450 V5_0)))) (or (not R_S1_V4) (= V4_0 ?x2923)))))) (let (($x3500 (or (not (= E1_!2446 E1_!2467)) (= S1_V4_!2451 S1_V4_!2472)))) (let (($x4117 (= S1_V4_!2451 S1_V4_!2461))) (let (($x3933 (or (not (and (or (not R_S1_V1) (= E1_!2446 (bvadd (_ bv1 32) (ite MW_S2_V1 S2_V1_!2452 (ite MW_S1_V1 S1_V1_!2447 E1_!2446))))) (or (not R_S1_V3) (= V3_0 (ite MW_S2_V3 S2_V3_!2453 (ite MW_S1_V3 S1_V3_!2448 V3_0)))) (or (not R_S1_V2) (= V2_0 (ite MW_S2_V2 S2_V2_!2454 (ite MW_S1_V2 S1_V2_!2449 V2_0)))) (or (not R_S1_V5) (= V5_0 (ite MW_S2_V5 S2_V5_!2455 (ite MW_S1_V5 S1_V5_!2450 V5_0)))) (or (not R_S1_V4) (= V4_0 ?x2923)))) (= S1_V4_!2451 S1_V4_!2461)))) (let (($x4279 (not (or (not R_S1_V1) (= E1_!2467 E1_!2446))))) (let (($x4277 (or $x4279 (= S1_V5_!2471 S1_V5_!2450)))) (let (($x4059 (or (or (not R_S1_V3) (= V3_0 (ite MW_S2_V3 S2_V3_!2453 (ite MW_S1_V3 S1_V3_!2448 V3_0)))) (= S1_V5_!2450 S1_V5_!2460)))) (let (($x3592 (= S2_V4_!2483 S2_V4_!2456))) (let (($x3928 (or (not R_S2_V4) (= (ite MW_S2_V4 S2_V4_!2478 ?x3637) (ite MW_S1_V4 S1_V4_!2451 V4_0))))) (let (($x3634 (or (not R_S2_V5) (= (ite MW_S2_V5 S2_V5_!2477 ?x3303) (ite MW_S1_V5 S1_V5_!2450 V5_0))))) (let (($x3758 (or (not R_S2_V2) (= (ite MW_S2_V2 S2_V2_!2476 ?x2455) (ite MW_S1_V2 S1_V2_!2449 V2_0))))) (let (($x3896 (or (not R_S2_V3) (= (ite MW_S2_V3 S2_V3_!2475 ?x2679) (ite MW_S1_V3 S1_V3_!2448 V3_0))))) (let (($x3164 (or (not (and (or $x215 (= ?x2975 (bvadd (_ bv1 32) (ite MW_S1_V1 S1_V1_!2447 E1_!2446)))) (or (not R_S2_V3) (= (ite MW_S2_V3 S2_V3_!2475 ?x2679) (ite MW_S1_V3 S1_V3_!2448 V3_0))) (or (not R_S2_V2) (= (ite MW_S2_V2 S2_V2_!2476 ?x2455) (ite MW_S1_V2 S1_V2_!2449 V2_0))) (or (not R_S2_V5) (= (ite MW_S2_V5 S2_V5_!2477 ?x3303) (ite MW_S1_V5 S1_V5_!2450 V5_0))) (or (not R_S2_V4) (= (ite MW_S2_V4 S2_V4_!2478 ?x3637) (ite MW_S1_V4 S1_V4_!2451 V4_0))))) (= S2_V4_!2483 S2_V4_!2456)))) (let (($x4054 (or (not R_E1_V4) (= V4_0 ?x3637)))) (let (($x3959 (or R_E1_V2 (= V2_0 ?x2455)))) (let (($x3299 (or $x4279 (= S1_V2_!2470 S1_V2_!2449)))) (let (($x4166 (and (or (not R_S1_V1) (= (ite MW_S2_V1 S2_V1_!2452 (ite MW_S1_V1 S1_V1_!2447 E1_!2446)) (bvadd (_ bv1 32) E1_!2467))) (or (not R_S1_V3) (= (ite MW_S2_V3 S2_V3_!2453 (ite MW_S1_V3 S1_V3_!2448 V3_0)) V3_0)) (or (not R_S1_V4) (= ?x2923 V4_0))))) (let (($x3922 (and (or (not R_S1_V1) (= (ite MW_S2_V1 S2_V1_!2452 (ite MW_S1_V1 S1_V1_!2447 E1_!2446)) (bvadd (_ bv1 32) E1_!2446))) (or (not R_S1_V3) (= (ite MW_S2_V3 S2_V3_!2453 (ite MW_S1_V3 S1_V3_!2448 V3_0)) V3_0)) (or (not R_S1_V4) (= ?x2923 V4_0))))) (let (($x4089 (or $x4279 (= S1_V3_!2469 S1_V3_!2448)))) (let (($x3064 (or $x215 (= S2_V5_!2482 S2_V5_!2477)))) (or (not (and (or $x3922 (= S1_V1_!2457 S1_V1_!2447)) (or $x4279 (= S1_V1_!2468 S1_V1_!2447)) (or $x3803 (= S1_V1_!2468 S1_V1_!2457)) (or (not (and $x2481 $x4030 $x3662 $x3179 $x3997)) (= S2_V5_!2455 S2_V5_!2465)) (or (not (and $x3861 $x4243 $x3431 $x2944 $x4110)) (= S2_V5_!2455 S2_V5_!2477)) (or $x3291 (= S2_V5_!2455 S2_V5_!2482)) (or $x3555 (= S2_V5_!2465 S2_V5_!2477)) (or $x3081 (= S2_V5_!2465 S2_V5_!2482)) (or $x215 (= S2_V5_!2482 S2_V5_!2477)) (or $x3922 (= S1_V3_!2458 S1_V3_!2448)) (or (not $x4166) (= S1_V3_!2458 S1_V3_!2469)) (or $x4279 (= S1_V3_!2469 S1_V3_!2448)) (or $x3922 (= S1_V2_!2459 S1_V2_!2449)) (or $x4166 (= S1_V2_!2459 S1_V2_!2470)) (or $x4279 (= S1_V2_!2470 S1_V2_!2449)) (or $x3959 (= E1_!2446 E1_!2473)) (= E1_!2467 E1_!2446) (or (not (and $x3959 (or (not R_E1_V5) (= V5_0 ?x3303)) (or (not R_E1_V4) (= V4_0 ?x3637)))) (= E1_!2467 E1_!2473)) (or $x3562 (= S2_V4_!2466 S2_V4_!2456)) (or $x3555 (= S2_V4_!2466 S2_V4_!2478)) (or $x3081 (= S2_V4_!2466 S2_V4_!2483)) (or $x2742 (= S2_V4_!2478 S2_V4_!2456)) (or $x2987 (= S2_V4_!2478 S2_V4_!2483)) $x3164 (or (or (not R_S1_V3) (= V3_0 (ite MW_S2_V3 S2_V3_!2453 (ite MW_S1_V3 S1_V3_!2448 V3_0)))) (= S1_V5_!2450 S1_V5_!2460)) (or $x4279 (= S1_V5_!2471 S1_V5_!2450)) (or $x3803 (= S1_V5_!2471 S1_V5_!2460)) (or $x3291 (= S2_V1_!2452 S2_V1_!2479)) (or $x3562 (= S2_V1_!2462 S2_V1_!2452)) (or $x3081 (= S2_V1_!2462 S2_V1_!2479)) (or $x2742 (= S2_V1_!2474 S2_V1_!2452)) (or (not (and $x3421 $x3399 $x3307 $x3551 $x2702)) (= S2_V1_!2474 S2_V1_!2462)) (or $x2987 (= S2_V1_!2474 S2_V1_!2479)) $x3933 (or (not (= E1_!2446 E1_!2467)) (= S1_V4_!2451 S1_V4_!2472)) (or $x3803 (= S1_V4_!2472 S1_V4_!2461)) (or (not $x2481) (= S2_V2_!2454 S2_V2_!2464)) (or (not $x3861) (= S2_V2_!2454 S2_V2_!2476)) (or $x3291 (= S2_V2_!2454 S2_V2_!2481)) (or $x3555 (= S2_V2_!2464 S2_V2_!2476)) (or (and (or $x215 (= ?x2975 (bvadd (_ bv1 32) ?x3185))) (or (not R_S2_V3) (= (ite MW_S2_V3 S2_V3_!2475 ?x2679) ?x3272)) (or (not R_S2_V2) (= (ite MW_S2_V2 S2_V2_!2476 ?x2455) ?x3414)) $x3990 $x3946) (= S2_V2_!2481 S2_V2_!2464)) (or (and (or $x215 (= ?x2975 (bvadd (_ bv1 32) E1_!2473))) $x3434 $x3978 (or (not R_S2_V5) (= (ite MW_S2_V5 S2_V5_!2477 ?x3303) ?x3303)) (or (not R_S2_V4) (= (ite MW_S2_V4 S2_V4_!2478 ?x3637) ?x3637))) (= S2_V2_!2481 S2_V2_!2476)) (or $x3291 (= S2_V3_!2453 S2_V3_!2480)) (or $x3562 (= S2_V3_!2463 S2_V3_!2453)) (or $x3081 (= S2_V3_!2463 S2_V3_!2480)) (or $x2742 (= S2_V3_!2475 S2_V3_!2453)) (or (not $x3421) (= S2_V3_!2475 S2_V3_!2463)) (or $x2987 (= S2_V3_!2475 S2_V3_!2480)) (not MW_S1_V1) (not MW_S1_V2) (or (not MW_S1_V5) W_S1_V5) (or (not MW_S1_V4) W_S1_V4) (or (not MW_S2_V1) W_S2_V1) (or (not MW_S2_V3) W_S2_V3) (or (not MW_S2_V2) W_S2_V2) (or (not MW_S2_V5) W_S2_V5))) (not $x2492) (and (= (ite MW_S2_V1 S2_V1_!2462 ?x3185) (ite MW_S2_V1 S2_V1_!2479 ?x3074)) (= (ite MW_S2_V3 S2_V3_!2463 (ite MW_S1_V3 S1_V3_!2458 (ite MW_S2_V3 S2_V3_!2453 (ite MW_S1_V3 S1_V3_!2448 V3_0)))) (ite MW_S2_V3 S2_V3_!2480 (ite MW_S1_V3 S1_V3_!2469 V3_0))) (= (ite MW_S2_V2 S2_V2_!2464 ?x3414) (ite MW_S2_V2 S2_V2_!2481 ?x2455)) (= (ite MW_S2_V5 S2_V5_!2465 (ite MW_S1_V5 S1_V5_!2460 (ite MW_S2_V5 S2_V5_!2455 (ite MW_S1_V5 S1_V5_!2450 V5_0)))) (ite MW_S2_V5 S2_V5_!2482 (ite MW_S1_V5 S1_V5_!2471 V5_0))) (= (ite MW_S2_V4 S2_V4_!2466 (ite MW_S1_V4 S1_V4_!2461 (ite MW_S2_V4 S2_V4_!2456 (ite MW_S1_V4 S1_V4_!2451 V4_0)))) (ite MW_S2_V4 S2_V4_!2483 (ite MW_S1_V4 S1_V4_!2472 V4_0))))))))))))))))))))))))))))))))))))))))))))))))))))))))))))))))))))))))))))))) (not (and W_S1_V5 R_E1_V5)) _substvar_5731_))))))
(assert (not (and DISJ_W_S2_R_S1 DISJ_W_S2_R_S2)))
(assert (not (and W_S2_V2 DISJ_W_S2_R_S2)))
(assert (not (and DISJ_W_S1_R_S2 DISJ_W_S2_R_S1)))
(assert (not (and R_S2_V3 (not R_S2_V4) W_S2_V5 DISJ_W_S2_R_S1)))
(assert (let (($x2259 (not W_S2_V2))) (not (and (not W_S2_V1) $x2259))))
(assert (not (and (not R_S2_V3) (not W_S1_V4) DISJ_W_S2_R_S1)))
(assert (not (and DISJ_W_S1_W_S2 DISJ_W_S2_R_S1)))
(assert (not (and (not R_S2_V4) (not W_S2_V5) (not W_S2_V3) DISJ_W_S2_R_S1)))
(check-sat)
(exit)
